Log file: C:\Users\user\robust_bilevel_network_games\true_dro\S20_beta0p1_cov95\log_sioux_falls_20260417_1448642.txt
Started: 2026-04-17T14:48:42.643


======================================================================
INSTANCE: sioux_falls (S=20, β=0.1, ε̂=0.84, ε̃=0.84)
======================================================================
============================================================
Sioux-Falls Network Summary
============================================================
Number of nodes: 24
Number of arcs (incl. dummy): 77
Number of regular arcs: 76
Number of interdictable arcs: 66
Source node: s (1)
Sink node: t (24)
Node-incidence matrix N dimensions: (23, 77)

Sparsity Information:
  Arc-arc adjacency: 864 / 5776 pairs (85.0% sparse)
  Node-arc incidence: 148 / 1748 pairs (91.5% sparse)

First 15 arcs:
  Arc 1: ("10", "11") [Interdictable: ✓]
  Arc 2: ("10", "15") [Interdictable: ✓]
  Arc 3: ("10", "16") [Interdictable: ✓]
  Arc 4: ("10", "17") [Interdictable: ✓]
  Arc 5: ("10", "9") [Interdictable: ✓]
  Arc 6: ("11", "10") [Interdictable: ✓]
  Arc 7: ("11", "12") [Interdictable: ✓]
  Arc 8: ("11", "14") [Interdictable: ✓]
  Arc 9: ("11", "4") [Interdictable: ✓]
  Arc 10: ("12", "11") [Interdictable: ✓]
  Arc 11: ("12", "13") [Interdictable: ✓]
  Arc 12: ("12", "3") [Interdictable: ✓]
  Arc 13: ("13", "12") [Interdictable: ✓]
  Arc 14: ("13", "t") [Interdictable: ✗]
  Arc 15: ("14", "11") [Interdictable: ✓]
============================================================
  |A|=76, S=20, γ=2, w=1.9805, λU=2.0
  ε̂=0.84, ε̃=0.84

----------------------------------------
VI-only OMP diagnostic (no Benders cuts)
Set parameter Username
Set parameter LicenseID to value 2742039
Academic license - for non-commercial use only - expires 2026-11-20
Set parameter OutputFlag to value 1
Set parameter OutputFlag to value 1
Gurobi Optimizer version 13.0.0 build v13.0.0rc1 (win64 - Windows 10.0 (19045.2))

CPU model: AMD Ryzen 9 5900X 12-Core Processor, instruction set [SSE2|AVX|AVX2]
Thread count: 12 physical cores, 24 logical processors, using up to 24 threads

Optimize a model with 6112 rows, 3577 columns and 18067 nonzeros (Min)
Model fingerprint: 0x8ba74a64
Model has 1 linear objective coefficients
Variable types: 3501 continuous, 76 integer (76 binary)
Coefficient statistics:
  Matrix range     [2e-02, 1e+00]
  Objective range  [1e+00, 1e+00]
  Bounds range     [1e+00, 1e+04]
  RHS range        [1e+00, 2e+00]
Found heuristic solution: objective 75.8358076
Presolve removed 2271 rows and 553 columns
Presolve time: 0.01s
Presolved: 3841 rows, 3024 columns, 8984 nonzeros
Found heuristic solution: objective 55.7240525
Variable types: 2960 continuous, 64 integer (64 binary)

Root relaxation: objective 3.230065e+00, 1334 iterations, 0.02 seconds (0.03 work units)

    Nodes    |    Current Node    |     Objective Bounds      |     Work
 Expl Unexpl |  Obj  Depth IntInf | Incumbent    BestBd   Gap | It/Node Time

*    0     0               0       3.2300654    3.23007  0.00%     -    0s

Explored 1 nodes (1334 simplex iterations) in 0.04 seconds (0.05 work units)
Thread count was 24 (of 24 available processors)

Solution count 3: 3.23007 55.7241 75.8358 

Optimal solution found (tolerance 1.00e-04)
Best objective 3.230065405688e+00, best bound 3.230065405688e+00, gap 0.0000%

User-callback calls 54, time in user-callback 0.00 sec
  VI-only LB = 3.230065, x = [0, 0, 0, 0, 0, 0, 0, 0, 0, 0, 0, 0, 0, 0, 0, 0, 0, 0, 0, 0, 0, 0, 0, 0, 0, 0, 0, 0, 0, 0, 0, 0, 0, 0, 0, 0, 0, 0, 0, 0, 0, 0, 0, 0, 0, 0, 0, 0, 0, 0, 1, 1, 0, 0, 0, 0, 0, 0, 0, 0, 0, 0, 0, 0, 0, 0, 0, 0, 0, 0, 0, 0, 0, 0, 0, 0]
----------------------------------------

======================================================================
1. True-DRO Benders (bilinear subproblem via Gurobi NonConvex=2)
======================================================================
Set parameter Username
Set parameter LicenseID to value 2742039
Academic license - for non-commercial use only - expires 2026-11-20
Set parameter Username
Set parameter LicenseID to value 2742039
Academic license - for non-commercial use only - expires 2026-11-20
Set parameter DualReductions to value 0
Set parameter NonConvex to value 2
Set parameter LogFile to value "global_miqcp.log"
Set parameter Username
Set parameter LicenseID to value 2742039
Academic license - for non-commercial use only - expires 2026-11-20
Set parameter DualReductions to value 0
Set parameter NonConvex to value 2
Set parameter OptimalityTarget to value 1
Set parameter Username
Set parameter LicenseID to value 2742039
Academic license - for non-commercial use only - expires 2026-11-20
Set parameter Username
Set parameter LicenseID to value 2742039
Academic license - for non-commercial use only - expires 2026-11-20
Set parameter Username
Set parameter LicenseID to value 2742039
Academic license - for non-commercial use only - expires 2026-11-20

=== True-DRO Benders iter 1 ===
  OMP: t₀=3.230065, UB=Inf, gap=NaN, x=[0, 0, 0, 0, 0, 0, 0, 0, 0, 0, 0, 0, 0, 0, 0, 0, 0, 0, 0, 0, 0, 0, 0, 0, 0, 0, 0, 0, 0, 0, 0, 0, 0, 0, 0, 0, 0, 0, 0, 0, 0, 0, 0, 0, 0, 0, 0, 0, 0, 0, 1, 1, 0, 0, 0, 0, 0, 0, 0, 0, 0, 0, 0, 0, 0, 0, 0, 0, 0, 0, 0, 0, 0, 0, 0, 0] (0.045s)
Set parameter TimeLimit to value 30
Set parameter MIPGap to value 0.0001
Set parameter MIPFocus to value 0
Set parameter NonConvex to value 2
Set parameter MIPGap to value 0.0001
Set parameter DualReductions to value 0
Set parameter OptimalityTarget to value 1
Set parameter MIPFocus to value 0
Set parameter TimeLimit to value 30
Gurobi Optimizer version 13.0.0 build v13.0.0rc1 (win64 - Windows 10.0 (19045.2))

CPU model: AMD Ryzen 9 5900X 12-Core Processor, instruction set [SSE2|AVX|AVX2]
Thread count: 12 physical cores, 24 logical processors, using up to 24 threads

Non-default parameters:
TimeLimit  30
OptimalityTarget  1
DualReductions  0
NonConvex  2

Optimize a model with 8778 rows, 17605 columns and 42593 nonzeros (Max)
Model fingerprint: 0xafa348c2
Model has 3136 linear objective coefficients
Model has 3040 quadratic constraints
Coefficient statistics:
  Matrix range     [3e-01, 3e+01]
  QMatrix range    [1e+00, 1e+00]
  QLMatrix range   [1e+00, 1e+00]
  Objective range  [1e+00, 2e+00]
  Bounds range     [1e+00, 1e+01]
  RHS range        [5e-02, 2e+00]

Continuous model is non-convex -- solving with NL barrier

Presolve removed 3040 rows and 3040 columns
Presolve time: 0.02s
Presolved: 5738 rows, 14565 columns, 27393 nonzeros
Presolved model has 3040 quadratic constraint(s)
Ordering time: 0.02s

NL barrier statistics:
  Hessian NZ  : 3.040e+03
  Jacobian NZ : 4.259e+04
  Factor NZ   : 2.818e+05
  Factor Ops  : 6.918e+06
  Threads     : 1

                           Residuals
Iter     Objective      Primal     Dual      Compl     Step     Time
   0  -2.33434639e+04  1.16e+05  3.27e+03  7.77e+02  0.00e+00     0s
   1  -2.41552504e+04  8.88e+04  2.96e+03  7.13e+02  2.36e-01     0s
   2  -2.53822415e+04  5.57e+04  2.48e+03  6.33e+02  3.72e-01     0s
   3  -2.56713474e+04  4.93e+04  1.27e+03  2.85e+02  1.15e-01     0s
   4  -2.64794218e+04  3.13e+04  7.55e+02  1.61e+02  3.64e-01     0s
   5  -2.65460068e+04  1.70e+04  4.43e+02  9.21e+01  4.56e-01     0s
   6  -2.56331138e+04  1.10e+04  2.09e+02  4.04e+01  3.54e-01     0s
   7  -2.31184857e+04  6.51e+03  6.93e+01  1.26e+01  4.08e-01     0s
   8  -1.63226530e+04  1.89e+03  6.14e+00  1.83e+00  7.10e-01     0s
   9  -1.17293307e+04  4.41e+02  6.50e-01  1.19e+00  7.67e-01     0s
  10  -1.10344202e+04  2.25e+02  3.35e-01  1.10e+00  4.90e-01     0s
  11  -1.06524773e+04  1.16e+02  1.86e-01  1.06e+00  4.82e-01     0s
  12  -1.04835234e+04  7.15e+01  1.22e-01  1.04e+00  3.85e-01     0s
  13  -1.04038119e+04  5.04e+01  6.19e-02  1.01e+00  2.96e-01     0s
  14  -1.02312347e+04  2.01e-06  2.18e-04  1.00e+00  1.00e+00     0s
  15  -1.02283974e+04  5.14e-10  9.58e-07  1.00e+00  1.00e+00     0s
  16  -1.02282830e+04  4.80e-12  1.55e-08  1.00e+00  1.00e+00     0s
  17  -6.45682572e+03  5.53e-06  1.47e-02  4.55e-01  5.61e-01     0s
  18  -3.65421167e+03  2.41e-05  6.50e-02  3.43e-01  6.40e-01     0s
  19  -2.75505703e+03  2.07e-05  2.89e-02  2.49e-01  4.38e-01     0s
  20  -1.94218334e+03  2.63e-05  1.63e-02  1.80e-01  7.01e-01     0s
  21  -1.61344097e+03  2.02e-05  6.55e-03  1.50e-01  1.00e+00     0s
  22  -1.61541598e+03  1.24e-06  1.61e-04  1.50e-01  1.00e+00     0s
  23  -1.61545577e+03  4.79e-10  2.71e-06  1.50e-01  1.00e+00     0s
  24  -8.68404190e+02  5.64e-05  9.25e-03  9.20e-02  4.72e-01     0s
  25  -7.29850042e+02  5.82e-05  5.12e-02  5.47e-02  1.80e-01     0s
  26  -4.09079445e+02  1.27e-03  7.97e-02  4.07e-02  5.35e-01     0s
  27  -2.41151429e+02  6.88e-03  4.72e-01  3.13e-02  6.53e-01     0s
  28  -1.69091045e+02  1.25e-03  5.52e-02  2.25e-02  1.00e+00     0s
  29  -1.71615618e+02  2.89e-04  1.58e-03  2.25e-02  1.00e+00     0s
  30  -1.71653104e+02  1.55e-06  1.70e-05  2.25e-02  1.00e+00     0s
  31  -9.26122456e+01  1.77e-03  1.71e-01  1.52e-02  4.58e-01     0s
  32  -4.01420823e+01  1.50e-03  5.26e-02  6.58e-03  6.36e-01     0s
  33  -1.69220537e+01  5.04e-04  2.11e-02  3.38e-03  1.00e+00     0s
  34  -1.72570100e+01  5.39e-05  9.47e-04  3.38e-03  1.00e+00     0s
  35  -1.72431882e+01  1.79e-07  4.36e-06  3.38e-03  1.00e+00     0s
  36  -7.94789017e-01  1.35e-03  2.41e-02  1.23e-03  7.66e-01     0s
  37   4.70023378e+00  8.61e-03  1.50e-01  9.66e-04  6.61e-01     0s
  38   5.76759042e+00  6.02e-03  1.01e-01  7.58e-04  3.46e-01     0s
  39   7.50552084e+00  1.76e-03  1.32e-02  3.55e-04  8.50e-01     0s
  40   7.75638786e+00  2.82e-04  2.33e-03  3.48e-04  8.16e-01     0s
  41   7.80875674e+00  3.83e-06  1.71e-06  3.46e-04  1.00e+00     0s
  42   7.80827404e+00  3.09e-11  2.16e-09  3.46e-04  1.00e+00     0s
  43   8.23561788e+00  1.41e-05  5.17e-02  1.82e-04  1.23e-01     0s
  44   8.35535563e+00  1.33e-05  2.10e-02  1.14e-04  5.79e-02     0s
  45   8.84252807e+00  6.83e-05  2.41e-02  9.59e-05  2.06e-01     0s
  46   1.03550199e+01  5.09e-04  6.81e-02  5.32e-05  8.38e-01     0s
  47   1.03964693e+01  4.51e-04  2.11e-02  2.28e-05  1.17e-01     0s
  48   1.04551900e+01  3.39e-04  3.61e-03  1.96e-05  2.48e-01     0s
  49   1.06702986e+01  4.68e-05  1.02e-04  1.43e-05  1.00e+00     0s
  50   1.06586842e+01  7.82e-07  1.00e-05  1.43e-05  1.00e+00     0s
  51   1.06564259e+01  6.98e-08  7.36e-07  1.43e-05  1.00e+00     0s
  52   1.06563098e+01  7.05e-10  2.52e-09  1.43e-05  1.00e+00     1s
  53   1.07615205e+01  8.61e-06  1.93e-03  5.61e-06  7.58e-01     1s
  54   1.07763186e+01  3.84e-06  6.20e-04  2.15e-06  5.57e-01     1s
  55   1.07923529e+01  5.45e-07  1.39e-06  1.65e-07  1.00e+00     1s
  56   1.07922571e+01  2.63e-07  2.95e-07  1.65e-07  1.00e+00     1s
  57   1.07922499e+01  6.94e-09  1.34e-08  1.65e-07  1.00e+00     1s
  58   1.07938938e+01  7.06e-09  4.34e-05  1.93e-08  9.99e-01     1s
  59   1.07939040e+01  7.57e-11  9.25e-11  1.00e-09  1.00e+00     1s

NL barrier solved model in 59 iterations and 0.57 seconds (0.73 work units)
First-order optimal solution
Solution objective 1.079390395307e+01

User-callback calls 354, time in user-callback 0.00 sec
  Sub: Z₀=10.793904 [LOCAL], α=[0.000,0.000,0.000,0.000,0.000,0.000,0.000,0.000,0.000,0.000,0.000,0.000,0.000,0.000,0.000,0.000,0.000,0.000,0.000,0.000,0.000,0.000,0.000,0.000,0.000,0.000,0.000,0.000,0.000,0.000,0.000,0.000,0.000,0.000,0.000,0.000,0.000,0.000,0.000,0.000,0.000,0.000,0.000,0.000,0.000,0.000,0.000,0.000,0.000,0.000,1.110,0.871,0.000,0.000,0.000,0.000,0.000,0.000,0.000,0.000,0.000,0.000,0.000,0.000,0.000,0.000,0.000,0.000,0.000,0.000,0.000,0.000,0.000,0.000,0.000,0.000]
  Iter 1: LB=3.230065  UB=Inf  gap=NaN
  Cut: intercept=-587.754562, π_x_range=[-418.8507, 301.3837]
  [ρ-diag] φ̂U=1.00, φ̃U=2.00, λU=2.00
    π_L range=[-137.0279, 91.3837], |π_L|_∞=137.0279
    π_F range=[-268.5526, 194.8995], |π_F|_∞=268.5526
    π_ψ range=[-13.3333, 17.1747], |π_ψ|_∞=17.1747
    ρ̂1: [0.0000, 10.0000], ρ̂3: [0.0000, 5.0000]
    ρ̃1: [0.0000, 6.7972], ρ̃3: [0.0000, 4.9686]
    ρ⁰1: [0.0000, 6.6667], ρ⁰3: [0.0000, 8.5873]
  [φ-diag] φ̂ actual: [-0.0000, 1.0000], φ̂U=1.00
  [φ-diag] φ̃ actual: [-0.0000, 2.0000], φ̃U=2.00
  Mini-Benders[1] (mw): LB=5.121018, Z₀(α*)=16.058229, intercept=27.377447
  Mini-Benders[2] (mw): LB=6.766660, Z₀(α*)=18.477539, intercept=27.142303
  Mini-Benders[3] (mw): LB=7.139828, Z₀(α*)=18.556031, intercept=27.548554
  Mini-Benders[4] (mw): LB=7.206089, Z₀(α*)=21.183039, intercept=29.358674
  Mini-Benders[5] (mw): LB=9.721063, Z₀(α*)=25.200652, intercept=29.380578
Set parameter NonConvex to value 2
Set parameter DualReductions to value 0
Set parameter LogFile to value "global_miqcp.log"
Gurobi Optimizer version 13.0.0 build v13.0.0rc1 (win64 - Windows 10.0 (19045.2))

CPU model: AMD Ryzen 9 5900X 12-Core Processor, instruction set [SSE2|AVX|AVX2]
Thread count: 12 physical cores, 24 logical processors, using up to 24 threads

Non-default parameters:
DualReductions  0
NonConvex  2

Optimize a model with 8778 rows, 17605 columns and 42593 nonzeros (Max)
Model fingerprint: 0x265bd0cc
Model has 3136 linear objective coefficients
Model has 3040 quadratic constraints
Coefficient statistics:
  Matrix range     [3e-01, 3e+01]
  QMatrix range    [1e+00, 1e+00]
  QLMatrix range   [1e+00, 1e+00]
  Objective range  [1e+00, 2e+00]
  Bounds range     [2e-08, 2e+00]
  RHS range        [5e-02, 2e+00]
Presolve removed 102 rows and 2396 columns
Presolve time: 0.01s
Presolved: 9360 rows, 15209 columns, 35685 nonzeros
Ordering time: 0.01s

Barrier statistics:
 Free vars  : 440
 AA' NZ     : 2.975e+04
 Factor NZ  : 2.072e+05 (roughly 12 MB of memory)
 Factor Ops : 1.209e+07 (less than 1 second per iteration)
 Threads    : 12

                  Objective                Residual
Iter       Primal          Dual         Primal    Dual     Compl     Time
   0  -1.28453151e+05 -0.00000000e+00  1.43e+04 1.00e+00  1.67e+02     0s
   1  -1.50933821e+05  1.07158939e+03  4.33e+03 6.05e+00  1.04e+02     0s
   2  -1.42185287e+05  1.08554249e+03  1.05e+03 1.87e+00  3.38e+01     0s
   3  -7.76290552e+04  8.19756500e+02  2.75e+01 4.05e-01  7.80e+00     0s
   4  -1.36458816e+04  5.69944275e+02  1.15e+00 1.24e-01  1.57e+00     0s
   5  -3.97233604e+03  2.34378396e+02  2.60e-01 2.35e-02  3.48e-01     0s
   6  -1.23489702e+03  1.21518886e+02  7.59e-02 4.98e-03  9.45e-02     0s
   7  -3.87605589e+02  8.52910504e+01  2.39e-02 2.40e-03  3.80e-02     0s
   8  -2.04732349e+02  6.62026073e+01  1.31e-02 1.31e-03  2.15e-02     0s
   9  -6.14029846e+01  4.11193041e+01  5.03e-03 2.37e-04  6.26e-03     0s
  10   4.71831579e+00  3.49222712e+01  1.30e-03 6.60e-05  1.83e-03     0s
  11   2.29708642e+01  3.27287707e+01  3.47e-04 3.09e-05  6.79e-04     0s
  12   2.84391805e+01  3.17264003e+01  1.08e-04 2.50e-06  1.66e-04     0s
  13   2.97293791e+01  3.11491565e+01  4.70e-05 9.11e-07  7.05e-05     0s
  14   3.07879323e+01  3.08099383e+01  3.46e-07 1.72e-08  1.09e-06     0s
  15   3.08033644e+01  3.08052878e+01  2.17e-08 1.78e-09  8.33e-08     0s
  16   3.08050706e+01  3.08052505e+01  2.75e-07 9.68e-11  8.15e-09     0s
  17   3.08050722e+01  3.08052504e+01  2.72e-07 9.57e-11  8.07e-09     0s
  18   3.08051043e+01  3.08052475e+01  2.33e-07 6.99e-11  6.50e-09     0s
  19   3.08051358e+01  3.08052455e+01  1.89e-07 5.27e-11  5.00e-09     0s
  20   3.08051810e+01  3.08052434e+01  1.07e-07 3.06e-11  2.85e-09     0s
  21   3.08052037e+01  3.08052428e+01  6.62e-08 2.32e-11  1.79e-09     0s
  22   3.08052106e+01  3.08052418e+01  6.02e-08 1.00e-11  1.44e-09     0s
  23   3.08052381e+01  3.08052413e+01  2.52e-08 3.93e-12  1.47e-10     0s
  24   3.08052395e+01  3.08052412e+01  5.84e-08 8.31e-13  7.75e-11     0s
  25   3.08052411e+01  3.08052412e+01  6.63e-08 1.37e-13  3.52e-12     0s

Barrier solved model in 25 iterations and 0.11 seconds (0.14 work units)
Optimal objective 3.08052411e+01


User-callback calls 77, time in user-callback 0.00 sec
  α-step: Z₀=30.805241, α=[0.000,0.000,0.000,0.000,0.000,0.000,0.000,0.000,0.000,0.000,1.615,0.000,0.000,0.000,0.000,0.000,0.024,0.000,0.000,0.000,0.000,0.000,0.000,0.000,0.000,0.000,0.000,0.000,0.000,0.000,0.000,0.000,0.000,0.000,0.000,0.000,0.000,0.000,0.026,0.000,0.000,0.000,0.000,0.000,0.000,0.034,0.024,0.000,0.000,0.000,0.091,0.087,0.000,0.000,0.000,0.000,0.000,0.000,0.000,0.000,0.037,0.042,0.000,0.000,0.000,0.000,0.000,0.000,0.000,0.000,0.000,0.000,0.000,0.000,0.000,0.000]
  Alt-Benders[1] (mw): LB=10.793904, Z₀(α*)=5.877344, intercept=26.434191
  Alt-Benders[2] (mw): LB=10.793904, Z₀(α*)=5.877344, intercept=26.434191
  Alt-Benders[3] (mw): LB=10.793904, Z₀(α*)=5.877344, intercept=26.434191
  Alt-Benders[4]: LB stagnated, break
  OMP re-solve: 0.001s

=== True-DRO Benders iter 2 ===
  OMP: t₀=10.793904, UB=Inf, gap=NaN, x=[0, 0, 0, 0, 0, 0, 0, 0, 0, 0, 0, 0, 0, 0, 0, 0, 0, 0, 0, 0, 0, 0, 0, 0, 0, 0, 0, 0, 0, 0, 0, 0, 0, 0, 0, 0, 0, 0, 0, 0, 0, 0, 0, 0, 0, 0, 0, 0, 0, 0, 1, 1, 0, 0, 0, 0, 0, 0, 0, 0, 0, 0, 0, 0, 0, 0, 0, 0, 0, 0, 0, 0, 0, 0, 0, 0] (0.001s)
Set parameter TimeLimit to value 30
Set parameter MIPGap to value 0.0001
Set parameter MIPFocus to value 0
Gurobi Optimizer version 13.0.0 build v13.0.0rc1 (win64 - Windows 10.0 (19045.2))

CPU model: AMD Ryzen 9 5900X 12-Core Processor, instruction set [SSE2|AVX|AVX2]
Thread count: 12 physical cores, 24 logical processors, using up to 24 threads

Non-default parameters:
TimeLimit  30
OptimalityTarget  1
DualReductions  0
NonConvex  2

Optimize a model with 8778 rows, 17605 columns and 42593 nonzeros (Max)
Model fingerprint: 0xafa348c2
Model has 3136 linear objective coefficients
Model has 3040 quadratic constraints
Variable types: 17605 continuous, 0 integer (0 binary)
Coefficient statistics:
  Matrix range     [3e-01, 3e+01]
  QMatrix range    [1e+00, 1e+00]
  QLMatrix range   [1e+00, 1e+00]
  Objective range  [1e+00, 2e+00]
  Bounds range     [1e+00, 1e+01]
  RHS range        [5e-02, 2e+00]
Presolve removed 3040 rows and 3040 columns
Presolve time: 0.02s
Presolved: 5738 rows, 14565 columns, 27393 nonzeros
Presolved model has 3040 quadratic constraint(s)

Solving NLP to local optimality

Ordering time: 0.01s

NL barrier statistics:
  Hessian NZ  : 3.040e+03
  Jacobian NZ : 4.259e+04
  Factor NZ   : 2.818e+05
  Factor Ops  : 6.918e+06
  Threads     : 1

                           Residuals
Iter     Objective      Primal     Dual      Compl     Step     Time
   0  -2.33434639e+04  1.16e+05  3.27e+03  7.77e+02  0.00e+00     0s
   1  -2.41552504e+04  8.88e+04  2.96e+03  7.13e+02  2.36e-01     0s
   2  -2.53822415e+04  5.57e+04  2.48e+03  6.33e+02  3.72e-01     0s
   3  -2.56713474e+04  4.93e+04  1.27e+03  2.85e+02  1.15e-01     0s
   4  -2.64794218e+04  3.13e+04  7.55e+02  1.61e+02  3.64e-01     0s
   5  -2.65460068e+04  1.70e+04  4.43e+02  9.21e+01  4.56e-01     0s
   6  -2.56331138e+04  1.10e+04  2.09e+02  4.04e+01  3.54e-01     0s
   7  -2.31184857e+04  6.51e+03  6.93e+01  1.26e+01  4.08e-01     0s
   8  -1.63226530e+04  1.89e+03  6.14e+00  1.83e+00  7.10e-01     0s
   9  -1.17293307e+04  4.41e+02  6.50e-01  1.19e+00  7.67e-01     0s
  10  -1.10344202e+04  2.25e+02  3.35e-01  1.10e+00  4.90e-01     0s
  11  -1.06524773e+04  1.16e+02  1.86e-01  1.06e+00  4.82e-01     0s
  12  -1.04835234e+04  7.15e+01  1.22e-01  1.04e+00  3.85e-01     0s
  13  -1.04038119e+04  5.04e+01  6.19e-02  1.01e+00  2.96e-01     0s
  14  -1.02312347e+04  2.01e-06  2.18e-04  1.00e+00  1.00e+00     0s
  15  -1.02283974e+04  5.14e-10  9.58e-07  1.00e+00  1.00e+00     0s
  16  -1.02282830e+04  4.80e-12  1.55e-08  1.00e+00  1.00e+00     0s
  17  -6.45682572e+03  5.53e-06  1.47e-02  4.55e-01  5.61e-01     0s
  18  -3.65421167e+03  2.41e-05  6.50e-02  3.43e-01  6.40e-01     0s
  19  -2.75505703e+03  2.07e-05  2.89e-02  2.49e-01  4.38e-01     0s
  20  -1.94218334e+03  2.63e-05  1.63e-02  1.80e-01  7.01e-01     0s
  21  -1.61344097e+03  2.02e-05  6.55e-03  1.50e-01  1.00e+00     0s
  22  -1.61541598e+03  1.24e-06  1.61e-04  1.50e-01  1.00e+00     0s
  23  -1.61545577e+03  4.79e-10  2.71e-06  1.50e-01  1.00e+00     0s
  24  -8.68404190e+02  5.64e-05  9.25e-03  9.20e-02  4.72e-01     0s
  25  -7.29850042e+02  5.82e-05  5.12e-02  5.47e-02  1.80e-01     0s
  26  -4.09079445e+02  1.27e-03  7.97e-02  4.07e-02  5.35e-01     0s
  27  -2.41151429e+02  6.88e-03  4.72e-01  3.13e-02  6.53e-01     0s
  28  -1.69091045e+02  1.25e-03  5.52e-02  2.25e-02  1.00e+00     0s
  29  -1.71615618e+02  2.89e-04  1.58e-03  2.25e-02  1.00e+00     0s
  30  -1.71653104e+02  1.55e-06  1.70e-05  2.25e-02  1.00e+00     0s
  31  -9.26122456e+01  1.77e-03  1.71e-01  1.52e-02  4.58e-01     0s
  32  -4.01420823e+01  1.50e-03  5.26e-02  6.58e-03  6.36e-01     0s
  33  -1.69220537e+01  5.04e-04  2.11e-02  3.38e-03  1.00e+00     0s
  34  -1.72570100e+01  5.39e-05  9.47e-04  3.38e-03  1.00e+00     0s
  35  -1.72431882e+01  1.79e-07  4.36e-06  3.38e-03  1.00e+00     0s
  36  -7.94789017e-01  1.35e-03  2.41e-02  1.23e-03  7.66e-01     0s
  37   4.70023378e+00  8.61e-03  1.50e-01  9.66e-04  6.61e-01     0s
  38   5.76759042e+00  6.02e-03  1.01e-01  7.58e-04  3.46e-01     0s
  39   7.50552084e+00  1.76e-03  1.32e-02  3.55e-04  8.50e-01     0s
  40   7.75638786e+00  2.82e-04  2.33e-03  3.48e-04  8.16e-01     0s
  41   7.80875674e+00  3.83e-06  1.71e-06  3.46e-04  1.00e+00     0s
  42   7.80827404e+00  3.09e-11  2.16e-09  3.46e-04  1.00e+00     0s
  43   8.23561788e+00  1.41e-05  5.17e-02  1.82e-04  1.23e-01     0s
  44   8.35535563e+00  1.33e-05  2.10e-02  1.14e-04  5.79e-02     0s
  45   8.84252807e+00  6.83e-05  2.41e-02  9.59e-05  2.06e-01     0s
  46   1.03550199e+01  5.09e-04  6.81e-02  5.32e-05  8.38e-01     0s
  47   1.03964693e+01  4.51e-04  2.11e-02  2.28e-05  1.17e-01     0s
  48   1.04551900e+01  3.39e-04  3.61e-03  1.96e-05  2.48e-01     0s
  49   1.06702986e+01  4.68e-05  1.02e-04  1.43e-05  1.00e+00     0s
  50   1.06586842e+01  7.82e-07  1.00e-05  1.43e-05  1.00e+00     0s
  51   1.06564259e+01  6.98e-08  7.36e-07  1.43e-05  1.00e+00     0s
  52   1.06563098e+01  7.05e-10  2.52e-09  1.43e-05  1.00e+00     0s
  53   1.07615205e+01  8.61e-06  1.93e-03  5.61e-06  7.58e-01     1s
  54   1.07763186e+01  3.84e-06  6.20e-04  2.15e-06  5.57e-01     1s
  55   1.07923529e+01  5.45e-07  1.39e-06  1.65e-07  1.00e+00     1s
  56   1.07922571e+01  2.63e-07  2.95e-07  1.65e-07  1.00e+00     1s
  57   1.07922499e+01  6.94e-09  1.34e-08  1.65e-07  1.00e+00     1s
  58   1.07938938e+01  7.06e-09  4.34e-05  1.93e-08  9.99e-01     1s
  59   1.07939040e+01  7.57e-11  9.25e-11  1.00e-09  1.00e+00     1s

NL barrier solved model in 59 iterations and 0.56 seconds (0.72 work units)
First-order optimal solution
Solution objective 1.079390395307e+01

User-callback calls 354, time in user-callback 0.00 sec
  Sub: Z₀=10.793904 [LOCAL], α=[0.000,0.000,0.000,0.000,0.000,0.000,0.000,0.000,0.000,0.000,0.000,0.000,0.000,0.000,0.000,0.000,0.000,0.000,0.000,0.000,0.000,0.000,0.000,0.000,0.000,0.000,0.000,0.000,0.000,0.000,0.000,0.000,0.000,0.000,0.000,0.000,0.000,0.000,0.000,0.000,0.000,0.000,0.000,0.000,0.000,0.000,0.000,0.000,0.000,0.000,1.110,0.871,0.000,0.000,0.000,0.000,0.000,0.000,0.000,0.000,0.000,0.000,0.000,0.000,0.000,0.000,0.000,0.000,0.000,0.000,0.000,0.000,0.000,0.000,0.000,0.000]
  Iter 2: LB=10.793904  UB=Inf  gap=NaN
  Cut: intercept=-587.754562, π_x_range=[-418.8507, 301.3837]
  [ρ-diag] φ̂U=1.00, φ̃U=2.00, λU=2.00
    π_L range=[-137.0279, 91.3837], |π_L|_∞=137.0279
    π_F range=[-268.5526, 194.8995], |π_F|_∞=268.5526
    π_ψ range=[-13.3333, 17.1747], |π_ψ|_∞=17.1747
    ρ̂1: [0.0000, 10.0000], ρ̂3: [0.0000, 5.0000]
    ρ̃1: [0.0000, 6.7972], ρ̃3: [0.0000, 4.9686]
    ρ⁰1: [0.0000, 6.6667], ρ⁰3: [0.0000, 8.5873]
  [φ-diag] φ̂ actual: [-0.0000, 1.0000], φ̂U=1.00
  [φ-diag] φ̃ actual: [-0.0000, 0.0000], φ̃U=2.00
  Mini-Benders[1] (mw): LB=10.793904, Z₀(α*)=11.123201, intercept=27.142302
  Mini-Benders[2] (mw): LB=11.123200, Z₀(α*)=11.123201, intercept=27.142302
  Mini-Benders[3] (mw): LB=11.123200, Z₀(α*)=11.123201, intercept=27.142302
  Mini-Benders[4] (mw): LB=11.123200, Z₀(α*)=11.123201, intercept=27.142302
  Mini-Benders[5]: LB stagnated, break
Gurobi Optimizer version 13.0.0 build v13.0.0rc1 (win64 - Windows 10.0 (19045.2))

CPU model: AMD Ryzen 9 5900X 12-Core Processor, instruction set [SSE2|AVX|AVX2]
Thread count: 12 physical cores, 24 logical processors, using up to 24 threads

Non-default parameters:
DualReductions  0
NonConvex  2

Optimize a model with 8778 rows, 17605 columns and 42593 nonzeros (Max)
Model fingerprint: 0xf40c200c
Model has 3136 linear objective coefficients
Model has 3040 quadratic constraints
Coefficient statistics:
  Matrix range     [3e-01, 3e+01]
  QMatrix range    [1e+00, 1e+00]
  QLMatrix range   [1e+00, 1e+00]
  Objective range  [1e+00, 2e+00]
  Bounds range     [1e-02, 2e+00]
  RHS range        [5e-02, 2e+00]
Presolve removed 102 rows and 2472 columns
Presolve time: 0.01s
Presolved: 9284 rows, 15133 columns, 35457 nonzeros
Ordering time: 0.01s

Barrier statistics:
 Free vars  : 440
 AA' NZ     : 2.899e+04
 Factor NZ  : 2.006e+05 (roughly 11 MB of memory)
 Factor Ops : 1.174e+07 (less than 1 second per iteration)
 Threads    : 12

                  Objective                Residual
Iter       Primal          Dual         Primal    Dual     Compl     Time
   0  -1.28464017e+05 -0.00000000e+00  1.43e+04 1.00e+00  1.68e+02     0s
   1  -1.51253832e+05  1.07387952e+03  4.18e+03 6.05e+00  1.04e+02     0s
   2  -1.39997617e+05  1.25945969e+03  9.91e+02 1.43e+00  2.76e+01     0s
   3  -6.66263405e+04  8.65721246e+02  2.78e+01 3.04e-01  6.15e+00     0s
   4  -1.19941553e+04  5.43873763e+02  2.29e+00 8.62e-02  1.21e+00     0s
   5  -3.30519312e+03  2.20359960e+02  5.73e-01 1.37e-02  2.50e-01     0s
   6  -7.98554859e+02  8.90424452e+01  1.33e-01 2.55e-03  5.85e-02     0s
   7  -2.19744732e+02  6.32083996e+01  3.72e-02 1.46e-03  2.42e-02     0s
   8  -4.44742858e+01  1.73157796e+01  8.32e-03 4.36e-05  3.16e-03     0s
   9   6.54202100e-01  1.26346945e+01  1.33e-03 6.39e-06  6.06e-04     0s
  10   1.07602711e+01  1.12095751e+01  2.79e-05 1.65e-07  2.35e-05     0s
  11   1.11219673e+01  1.11234270e+01  1.85e-08 1.11e-09  6.57e-08     0s
  12   1.11231990e+01  1.11232016e+01  3.90e-10 6.84e-12  1.14e-10     0s
  13   1.11232014e+01  1.11232014e+01  4.26e-12 1.42e-14  3.85e-16     0s

Barrier solved model in 13 iterations and 0.06 seconds (0.07 work units)
Optimal objective 1.11232014e+01


User-callback calls 60, time in user-callback 0.00 sec
  α-step: Z₀=11.123201, α=[0.000,0.000,0.000,0.000,0.000,0.000,0.000,0.000,0.000,0.000,0.000,0.000,0.000,0.000,0.000,0.000,0.000,0.000,0.000,0.000,0.000,0.000,0.000,0.000,0.000,0.000,0.000,0.000,0.000,0.000,0.000,0.000,0.000,0.000,0.000,0.000,0.000,0.000,0.000,0.000,0.000,0.000,0.000,0.000,0.000,0.000,0.000,0.000,0.000,0.000,1.101,0.879,0.000,0.000,0.000,0.000,0.000,0.000,0.000,0.000,0.000,0.000,0.000,0.000,0.000,0.000,0.000,0.000,0.000,0.000,0.000,0.000,0.000,0.000,0.000,0.000]
  Alt-Benders[1] (mw): LB=11.123200, Z₀(α*)=11.123201, intercept=27.142302
  Alt-Benders[2] (mw): LB=11.123200, Z₀(α*)=11.123201, intercept=27.142302
  Alt-Benders[3] (mw): LB=11.123200, Z₀(α*)=11.123201, intercept=27.142302
  Alt-Benders[4]: LB stagnated, break
  OMP re-solve: 0.001s

=== True-DRO Benders iter 3 ===
  OMP: t₀=11.123200, UB=Inf, gap=NaN, x=[0, 0, 0, 0, 0, 0, 0, 0, 0, 0, 0, 0, 0, 0, 0, 0, 0, 0, 0, 0, 0, 0, 0, 0, 0, 0, 0, 0, 0, 0, 0, 0, 0, 0, 0, 0, 0, 0, 0, 0, 0, 0, 0, 0, 0, 0, 0, 0, 0, 0, 1, 1, 0, 0, 0, 0, 0, 0, 0, 0, 0, 0, 0, 0, 0, 0, 0, 0, 0, 0, 0, 0, 0, 0, 0, 0] (0.001s)
Set parameter TimeLimit to value 30
Set parameter MIPGap to value 0.0001
Set parameter MIPFocus to value 0
Gurobi Optimizer version 13.0.0 build v13.0.0rc1 (win64 - Windows 10.0 (19045.2))

CPU model: AMD Ryzen 9 5900X 12-Core Processor, instruction set [SSE2|AVX|AVX2]
Thread count: 12 physical cores, 24 logical processors, using up to 24 threads

Non-default parameters:
TimeLimit  30
DualReductions  0
NonConvex  2

Optimize a model with 8778 rows, 17605 columns and 42593 nonzeros (Max)
Model fingerprint: 0x0f87ca77
Model has 3136 linear objective coefficients
Model has 3040 quadratic constraints
Coefficient statistics:
  Matrix range     [3e-01, 3e+01]
  QMatrix range    [1e+00, 1e+00]
  QLMatrix range   [1e+00, 1e+00]
  Objective range  [1e+00, 2e+00]
  Bounds range     [1e+00, 2e+00]
  RHS range        [5e-02, 2e+00]

Continuous model is non-convex -- solving as a MIP

Presolve time: 0.02s
Presolved: 20938 rows, 17606 columns, 66913 nonzeros
Presolved model has 3040 bilinear constraint(s)
Variable types: 17606 continuous, 0 integer (0 binary)
Found heuristic solution: objective 11.1231928

Root relaxation: objective 1.236360e+01, 6736 iterations, 0.32 seconds (0.79 work units)

    Nodes    |    Current Node    |     Objective Bounds      |     Work
 Expl Unexpl |  Obj  Depth IntInf | Incumbent    BestBd   Gap | It/Node Time

     0     0   12.36360    0   45   11.12319   12.36360  11.2%     -    0s
     0     0          -    0        11.12319   11.12320  0.00%     -    0s

Cutting planes:
  RLT: 26

Explored 1 nodes (7739 simplex iterations) in 0.87 seconds (1.45 work units)
Thread count was 24 (of 24 available processors)

Solution count 1: 11.1232 

Optimal solution found (tolerance 1.00e-04)
Best objective 1.112319282700e+01, best bound 1.112320140769e+01, gap 0.0001%

User-callback calls 139, time in user-callback 0.00 sec
  Sub: Z₀=11.123193, α=[0.000,0.000,0.000,0.000,0.000,0.000,0.000,0.000,0.000,0.000,0.000,0.000,0.000,0.000,0.000,0.000,0.000,0.000,0.000,0.000,0.000,0.000,0.000,0.000,0.000,0.000,0.000,0.000,0.000,0.000,0.000,0.000,0.000,0.000,0.000,0.000,0.000,0.000,0.000,0.000,0.000,0.000,0.000,0.000,0.000,0.000,0.000,0.000,0.000,0.000,0.994,0.986,0.000,0.000,0.000,0.000,0.000,0.000,0.000,0.000,0.000,0.000,0.000,0.000,0.000,0.000,0.000,0.000,0.000,0.000,0.000,0.000,0.000,0.000,0.000,0.000]
  Iter 3: LB=11.123200  UB=11.123193  gap=6.72e-07
True-DRO Benders converged at iter 3 (gap=6.72e-07)
  Wall time: 10.40 sec
  OMP  time: mean=0.159s, median=0.194s, max=0.254s
  Sub  time (exact): mean=0.921s, median=0.921s, q90=0.921s, max=0.921s (n=1/3)

----------------------------------------
True-DRO: status=Optimal, Z₀=11.123193, iters=3, time=10.40s
  LB=11.123200, UB=11.123193, gap=6.72e-07
  x* = [0, 0, 0, 0, 0, 0, 0, 0, 0, 0, 0, 0, 0, 0, 0, 0, 0, 0, 0, 0, 0, 0, 0, 0, 0, 0, 0, 0, 0, 0, 0, 0, 0, 0, 0, 0, 0, 0, 0, 0, 0, 0, 0, 0, 0, 0, 0, 0, 0, 0, 1, 1, 0, 0, 0, 0, 0, 0, 0, 0, 0, 0, 0, 0, 0, 0, 0, 0, 0, 0, 0, 0, 0, 0, 0, 0]
  α* = [0.000, 0.000, 0.000, 0.000, 0.000, 0.000, 0.000, 0.000, 0.000, 0.000, 0.000, 0.000, 0.000, 0.000, 0.000, 0.000, 0.000, 0.000, 0.000, 0.000, 0.000, 0.000, 0.000, 0.000, 0.000, 0.000, 0.000, 0.000, 0.000, 0.000, 0.000, 0.000, 0.000, 0.000, 0.000, 0.000, 0.000, 0.000, 0.000, 0.000, 0.000, 0.000, 0.000, 0.000, 0.000, 0.000, 0.000, 0.000, 0.000, 0.000, 0.994, 0.986, 0.000, 0.000, 0.000, 0.000, 0.000, 0.000, 0.000, 0.000, 0.000, 0.000, 0.000, 0.000, 0.000, 0.000, 0.000, 0.000, 0.000, 0.000, 0.000, 0.000, 0.000, 0.000, 0.000, 0.000]
  Profile saved → C:\Users\user\robust_bilevel_network_games\true_dro\profiles.jls (44 entries)
============================================================
Primal Recovery: x* → α* → (h*, λ*, ψ⁰*)
============================================================
  x* = [0, 0, 0, 0, 0, 0, 0, 0, 0, 0, 0, 0, 0, 0, 0, 0, 0, 0, 0, 0, 0, 0, 0, 0, 0, 0, 0, 0, 0, 0, 0, 0, 0, 0, 0, 0, 0, 0, 0, 0, 0, 0, 0, 0, 0, 0, 0, 0, 0, 0, 1, 1, 0, 0, 0, 0, 0, 0, 0, 0, 0, 0, 0, 0, 0, 0, 0, 0, 0, 0, 0, 0, 0, 0, 0, 0]
  α* = [0.0000, 0.0000, 0.0000, 0.0000, 0.0000, 0.0000, 0.0000, 0.0000, 0.0000, 0.0000, 0.0000, 0.0000, 0.0000, 0.0000, 0.0000, 0.0000, 0.0000, 0.0000, 0.0000, 0.0000, 0.0000, 0.0000, 0.0000, 0.0000, 0.0000, 0.0000, 0.0000, 0.0000, 0.0000, 0.0000, 0.0000, 0.0000, 0.0000, 0.0000, 0.0000, 0.0000, 0.0000, 0.0000, 0.0000, 0.0000, 0.0000, 0.0000, 0.0000, 0.0000, 0.0000, 0.0000, 0.0000, 0.0000, 0.0000, 0.0000, 0.9942, 0.9863, 0.0000, 0.0000, 0.0000, 0.0000, 0.0000, 0.0000, 0.0000, 0.0000, 0.0000, 0.0000, 0.0000, 0.0000, 0.0000, 0.0000, 0.0000, 0.0000, 0.0000, 0.0000, 0.0000, 0.0000, 0.0000, 0.0000, 0.0000, 0.0000]

  Piece-F obj = 0.000000
  λ*   = -0.000000
  Σh*  = 0.000000  (budget: λw = -0.000000)

  h* (nonzero arcs):
  ψ⁰* (nonzero arcs):

  Per-scenario sink flow ỹ_ts:
    s=1: ỹ_ts=-0.000000
    s=2: ỹ_ts=-0.000000
    s=3: ỹ_ts=-0.000000
    s=4: ỹ_ts=-0.000000
    s=5: ỹ_ts=-0.000000
    s=6: ỹ_ts=-0.000000
    s=7: ỹ_ts=-0.000000
    s=8: ỹ_ts=-0.000000
    s=9: ỹ_ts=-0.000000
    s=10: ỹ_ts=-0.000000
    s=11: ỹ_ts=-0.000000
    s=12: ỹ_ts=-0.000000
    s=13: ỹ_ts=-0.000000
    s=14: ỹ_ts=-0.000000
    s=15: ỹ_ts=-0.000000
    s=16: ỹ_ts=-0.000000
    s=17: ỹ_ts=-0.000000
    s=18: ỹ_ts=-0.000000
    s=19: ỹ_ts=-0.000000
    s=20: ỹ_ts=-0.000000

  Z₀(Benders) = 11.123193
  Piece-F(recovered) = 0.000000

Finished: 2026-04-17T14:48:53.441
